N = 4;

puzzle = array2d(1..N*N, 1..4,[
  0,0,2,0,
  2,1,2,9,
  5,5,0,6,
  2,8,1,2,
  3,2,9,0,
  1,3,1,7,
  4,0,0,4,
  8,9,2,6,
  2,2,9,2,
  5,4,7,2,
  6,7,2,9,
  0,3,2,8,
  8,1,0,0,
  9,2,3,2,
  7,0,9,9,
  0,6,6,1]);